(set-info :smt-lib-version 2.6)
(set-logic LRA)
(set-info :source |
   Monniaux, David; Quantifier Elimination by Lazy Model Enumeration, CAV 2010
|)
(set-info :category "random")
; ./Mjollnir_examples/B5/formula_123.m
(set-info :status unsat)
(assert
 (forall ((|v17:0| Real) )(forall ((|v16:1| Real) )(forall ((|v15:2| Real) )(forall ((|v14:3| Real) )(forall ((|v13:4| Real) )(forall ((|v12:5| Real) )(exists ((|v11:6| Real) )(exists ((|v10:7| Real) )(exists ((|v9:8| Real) )(exists ((|v8:9| Real) )(exists ((|v7:10| Real) )(exists ((|v6:11| Real) )(forall ((|v5:12| Real) )(forall ((|v4:13| Real) )(forall ((|v3:14| Real) )(forall ((|v2:15| Real) )(forall ((|v1:16| Real) )(forall ((|v0:17| Real) )(let ((?x60 (- 18)))
(let ((?x329 (+ (+ (* (- 19) |v3:14|) (* 2 |v4:13|)) (* 20 |v13:4|))))
(let ((?x320 (+ (+ (* (- 8) |v9:8|) (* 20 |v14:3|)) (* 11 |v7:10|))))
(let (($x333 (or (<= (+ ?x320 (* 11 |v5:12|)) (- 3)) (<= (+ ?x329 (* (- 17) |v0:17|)) ?x60))))
(let ((?x24 8))
(let ((?x14 17))
(let ((?x296 (* ?x14 |v8:9|)))
(let ((?x312 (+ (+ (* 14 |v4:13|) (* 0 |v13:4|)) (* (- 12) |v13:4|))))
(let ((?x149 (- 4)))
(let ((?x192 0))
(let ((?x226 (* ?x192 |v10:7|)))
(let ((?x305 (+ (+ (* 15 |v14:3|) (* (- 19) |v3:14|)) (* 9 |v8:9|))))
(let ((?x31 4))
(let ((?x295 (+ (+ (* (- 6) |v17:0|) (* (- 17) |v15:2|)) (* (- 1) |v10:7|))))
(let ((?x80 (- 8)))
(let ((?x289 (+ (+ (+ (* (- 14) |v5:12|) (* ?x149 |v16:1|)) (* ?x149 |v8:9|)) (* (- 1) |v8:9|))))
(let ((?x97 14))
(let ((?x276 (+ (+ (* 9 |v5:12|) (* (- 1) |v17:0|)) (* 18 |v4:13|))))
(let ((?x269 (+ (+ (* ?x24 |v12:5|) (* 18 |v1:16|)) (* 20 |v5:12|))))
(let (($x282 (and (<= (+ ?x269 (* (- 15) |v3:14|)) 1) (<= (+ ?x276 (* 6 |v3:14|)) ?x97))))
(let (($x335 (and (and $x282 (and (<= ?x289 ?x80) (<= (+ ?x295 ?x296) ?x31))) (and (and (<= (+ ?x305 ?x226) ?x149) (<= (+ ?x312 ?x296) ?x24)) $x333))))
(let ((?x130 (- 10)))
(let ((?x203 (- 1)))
(let ((?x260 (* ?x203 |v17:0|)))
(let ((?x261 (+ (+ (+ (* ?x192 |v17:0|) (* ?x149 |v9:8|)) (* (- 19) |v1:16|)) ?x260)))
(let ((?x247 (+ (+ (* ?x14 |v16:1|) (* (- 11) |v2:15|)) (* (- 17) |v1:16|))))
(let ((?x120 (- 14)))
(let ((?x237 (+ (+ (* (- 20) |v5:12|) (* 11 |v9:8|)) (* (- 15) |v2:15|))))
(let (($x252 (and (<= (+ ?x237 (* 19 |v3:14|)) ?x120) (<= (+ ?x247 (* (- 16) |v0:17|)) (- 6)))))
(let ((?x225 (+ (+ (* (- 7) |v4:13|) (* 9 |v6:11|)) (* ?x149 |v14:3|))))
(let ((?x72 (- 9)))
(let ((?x218 (+ (+ (* 9 |v9:8|) (* ?x97 |v13:4|)) (* 3 |v5:12|))))
(let (($x229 (or (<= (+ ?x218 (* (- 7) |v7:10|)) ?x72) (<= (+ ?x225 ?x226) ?x31))))
(let ((?x209 (+ (+ (* 19 |v10:7|) (* ?x203 |v2:15|)) (* (- 17) |v17:0|))))
(let ((?x197 (+ (+ (* ?x192 |v14:3|) (* 12 |v12:5|)) (* (- 7) |v12:5|))))
(let (($x213 (and (<= (+ ?x197 (* 10 |v2:15|)) ?x24) (<= (+ ?x209 (* ?x31 |v13:4|)) ?x192))))
(let ((?x186 (+ (+ (* 9 |v12:5|) (* (- 12) |v1:16|)) (* (- 2) |v8:9|))))
(let (($x254 (and (<= (+ ?x186 (* ?x24 |v13:4|)) (- 11)) (or (or $x213 $x229) $x252))))
(let ((?x177 9))
(let ((?x174 (+ (+ (* (- 16) |v13:4|) (* ?x60 |v12:5|)) (* 10 |v9:8|))))
(let ((?x35 7))
(let ((?x106 (* ?x35 |v4:13|)))
(let ((?x162 (+ (+ (+ (* ?x14 |v3:14|) (* (- 2) |v14:3|)) ?x106) (* ?x24 |v11:6|))))
(let ((?x146 (+ (+ (* 12 |v9:8|) (* 19 |v5:12|)) (* (- 12) |v5:12|))))
(let ((?x139 12))
(let ((?x136 (+ (+ (* 10 |v7:10|) (* ?x130 |v0:17|)) (* (- 20) |v15:2|))))
(let (($x151 (or (<= (+ ?x136 (* ?x35 |v0:17|)) ?x139) (<= (+ ?x146 (* ?x120 |v6:11|)) ?x149))))
(let ((?x122 (+ (+ (+ (* (- 3) |v14:3|) (* (- 19) |v6:11|)) |v14:3|) (* ?x120 |v7:10|))))
(let (($x109 (<= (+ (+ (+ (* 18 |v13:4|) (* ?x72 |v8:9|)) ?x106) |v10:7|) ?x80)))
(let ((?x100 11))
(let ((?x95 (+ (+ (* ?x24 |v10:7|) (* 3 |v9:8|)) (* (- 5) |v6:11|))))
(let ((?x77 (- 7)))
(let ((?x78 (* ?x77 |v4:13|)))
(let ((?x74 (+ (+ (* (- 12) |v0:17|) (* (- 12) |v3:14|)) (* ?x72 |v13:4|))))
(let ((?x63 18))
(let ((?x57 (+ (+ (* 13 |v0:17|) (* 13 |v7:10|)) (* 15 |v12:5|))))
(let ((?x10 15))
(let ((?x47 (+ (+ (+ (* ?x31 |v8:9|) (* ?x35 |v17:0|)) (* 16 |v15:2|)) (* (- 12) |v2:15|))))
(let ((?x26 (+ (+ (+ (* ?x10 |v0:17|) (* ?x14 |v7:10|)) (* 19 |v12:5|)) (* ?x24 |v5:12|))))
(let (($x83 (or (and (<= ?x26 5) (<= ?x47 ?x10)) (and (<= (+ ?x57 (* ?x60 |v9:8|)) ?x63) (<= (+ ?x74 ?x78) ?x80)))))
(let (($x166 (and (and $x83 (<= (+ ?x95 (* ?x97 |v10:7|)) ?x100)) (or (or (or $x109 (<= ?x122 ?x120)) $x151) (<= ?x162 1)))))
(and (and $x166 (<= (+ ?x174 (* ?x130 |v14:3|)) ?x177)) (or $x254 (or (<= ?x261 ?x130) $x335)))))))))))))))))))))))))))))))))))))))))))))))))))))))))))))))))
)
)
)
)
)
)
)
)
)
)
)
)
)
)
)
)
)
)
(check-sat)
(exit)

